&control
    prefix='Ge'
    calculation = 'vc-relax'
    restart_mode = 'from_scratch' !!can also be 'restart'
    tstress = .true.  !!calculate stress
    tprnfor = .true.  !!calculate forces
    outdir = './' !!same folder is ./
    pseudo_dir = './' !!
    etot_conv_thr = 1.0D-4 !!currently placeholders
    forc_conv_thr = 1.0D-3 !!currently placeholders
 /
 &system
    ibrav = 0, !! freeform structure input. In course keep to 0.
    celldm(1) = 10.87930635, !! lattice constant expressed in Bohr units; multiply by relaxed cell parameter 10.87 by 2*(0.500428075)=1.00085615
    nat = 8, !!number of atoms in primitive unit cell
    ntyp = 1, !!types of atoms
    ecutwfc = 110.0, !!
    nbnd = 73, !!number of bands, how many states for e- am I going to calculate; Ge has 14 valence e- per the pseudopotential file meaning 112 valence electrons total. Divide by 2 and add 30% for margin. 112/2 = 56*1.3 = 73
    occupations = 'smearing',
    degauss=0.002
 /
 &electrons
 diagonalization='david'
 mixing_mode = 'plain'
 mixing_beta = 0.7
 conv_thr = 1.0d-12
/
&ions
ion_dynamics='bfgs' !! name of algorithm
/
&cell
cell_dynamics='bfgs' !! has to match ion dynamics
wmass=581.04 !! total mass of atoms in one unit cell; 8 atoms of Ge is 72.63*8
cell_dofree='xy' !!
 /

ATOMIC_SPECIES
 Ge  72.630  ge_pbe_v1.4.uspp.F.UPF    !!update

CELL_PARAMETERS alat     !!volume matrix
   1.0 0.0 0.0
   0.0 1.0 0.0
   0.0 0.0 1.0

ATOMIC_POSITIONS alat    !!update coordinates of atoms
 Ge 0.00 0.00 0.00
 Ge 0.25 0.25 0.25       !! multiply by alpha for z coordinates
 Ge 0.00 0.50 0.50
 Ge 0.25 0.75 0.75
 Ge 0.50 0.00 0.50
 Ge 0.75 0.25 0.75
 Ge 0.50 0.50 0.00
 Ge 0.75 0.75 0.25

K_POINTS automatic
 12 12 12 0 0 0
